peakDumbCharging = 7400; 
Machine = anon_enum(16); 
machineSpeed = [3700,3700,3700,3700,3700,3700,3700,3700,3700,3700,3700,3700,3700,3700,3700,3700]; 
machineLoad = [3700,3700,3700,3700,3700,3700,3700,3700,3700,3700,3700,3700,3700,3700,3700,3700]; 
Car = anon_enum(6); 
demandCar = [280,4240,18920,13400,13120,12320]; 
arrivalCar = [71,65,61,56,54,36]; 
departureCar = [72,69,72,66,62,41]; 
